WARNING: for repeatability, setting FPU to use double precision
============================[ Problem Statistics ]=============================
|                                                                             |
|  Number of variables:        167970                                         |
|  Number of clauses:          999018                                         |
|  Parse time:                   0.26 s                                       |
|                                                                             |
c ============================[ Search Statistics ]==============================
c | Conflicts |          ORIGINAL         |          LEARNT          | Progress |
c |           |    Vars  Clauses Literals |    Limit  Clauses Lit/Cl |          |
c ===============================================================================
We had 19243 decisions of which only 0 were on extended
We had 36998805 decisions of which only 0 were on extended
c Switched to VSIDS.
c Switched to LRB.
c Switched to VSIDS.
c Switched to LRB.
We had 102318520 decisions of which only 0 were on extended
c Switched to VSIDS.
c Switched to LRB.
We had 152145762 decisions of which only 0 were on extended
We had 167200345 decisions of which only 3.76793e-05 were on extended
c Switched to VSIDS.
c Switched to LRB.
We had 223683378 decisions of which only 2.81648e-05 were on extended
c Switched to VSIDS.
We had 224869542 decisions of which only 2.80162e-05 were on extended
We had 225634759 decisions of which only 2.79212e-05 were on extended
We had 226189654 decisions of which only 2.78527e-05 were on extended
We had 226673744 decisions of which only 2.77932e-05 were on extended
We had 227389879 decisions of which only 2.77057e-05 were on extended
We had 228327291 decisions of which only 2.7592e-05 were on extended
We had 228423687 decisions of which only 2.75803e-05 were on extended
We had 229578129 decisions of which only 2.74416e-05 were on extended
We had 229767205 decisions of which only 2.74191e-05 were on extended
We had 229906489 decisions of which only 2.74024e-05 were on extended
We had 230362657 decisions of which only 2.73482e-05 were on extended
We had 231392250 decisions of which only 2.72265e-05 were on extended
We had 231926183 decisions of which only 2.7595e-05 were on extended
Window full
Continue
We had 232068895 decisions of which only 2.7578e-05 were on extended
We had 232139818 decisions of which only 2.97235e-05 were on extended
c Switched to LRB.
We had 232683224 decisions of which only 3.00838e-05 were on extended
We had 232948480 decisions of which only 3.00496e-05 were on extended
We had 233500175 decisions of which only 2.99786e-05 were on extended
We had 233580321 decisions of which only 2.99683e-05 were on extended
We had 234803497 decisions of which only 2.98122e-05 were on extended
We had 235560685 decisions of which only 2.97163e-05 were on extended
We had 236526255 decisions of which only 3.08634e-05 were on extended
We had 236556230 decisions of which only 3.08595e-05 were on extended
Window full
Continue
We had 236683997 decisions of which only 3.38003e-05 were on extended
We had 236837843 decisions of which only 3.75785e-05 were on extended
We had 236890421 decisions of which only 3.75701e-05 were on extended
We had 237963511 decisions of which only 4.20232e-05 were on extended
We had 238704108 decisions of which only 4.18929e-05 were on extended
We had 239187579 decisions of which only 4.18082e-05 were on extended
We had 239631113 decisions of which only 4.84077e-05 were on extended
We had 240166354 decisions of which only 4.99654e-05 were on extended
c Switched to VSIDS.
We had 241191240 decisions of which only 5.14115e-05 were on extended
We had 241399116 decisions of which only 5.21957e-05 were on extended
Window full
Continue
We had 241571755 decisions of which only 5.21584e-05 were on extended
We had 241971150 decisions of which only 5.20723e-05 were on extended
We had 242019148 decisions of which only 5.2062e-05 were on extended
We had 242104501 decisions of which only 5.41089e-05 were on extended
We had 242222097 decisions of which only 5.40826e-05 were on extended
We had 242797549 decisions of which only 5.39544e-05 were on extended
We had 243315939 decisions of which only 5.38395e-05 were on extended
We had 243449312 decisions of which only 5.381e-05 were on extended
We had 243781196 decisions of which only 5.37367e-05 were on extended
We had 244092774 decisions of which only 5.36681e-05 were on extended
Window full
Continue
We had 244619241 decisions of which only 5.35526e-05 were on extended
We had 244678598 decisions of which only 5.35396e-05 were on extended
We had 244740590 decisions of which only 5.35261e-05 were on extended
We had 245598996 decisions of which only 5.70035e-05 were on extended
We had 245893716 decisions of which only 5.69352e-05 were on extended
We had 246777091 decisions of which only 5.75418e-05 were on extended
We had 246845665 decisions of which only 5.75258e-05 were on extended
c Switched to LRB.
We had 247164708 decisions of which only 5.74516e-05 were on extended
We had 248294642 decisions of which only 5.71901e-05 were on extended
We had 248716005 decisions of which only 5.74953e-05 were on extended
Window full
Continue
We had 249034356 decisions of which only 5.78233e-05 were on extended
We had 249089239 decisions of which only 5.78106e-05 were on extended
We had 249461007 decisions of which only 5.77245e-05 were on extended
We had 249562928 decisions of which only 5.77009e-05 were on extended
We had 249799812 decisions of which only 5.76462e-05 were on extended
We had 250234674 decisions of which only 5.7546e-05 were on extended
We had 250620999 decisions of which only 5.74573e-05 were on extended
We had 250761455 decisions of which only 5.74251e-05 were on extended
We had 250968223 decisions of which only 5.73778e-05 were on extended
We had 251140401 decisions of which only 5.73384e-05 were on extended
Window full
Deactivate
We had 251466904 decisions of which only 5.7264e-05 were on extended
We had 251525778 decisions of which only 5.72506e-05 were on extended
We had 251767266 decisions of which only 5.71957e-05 were on extended
We had 251907745 decisions of which only 5.71638e-05 were on extended
We had 252239752 decisions of which only 5.7485e-05 were on extended
We had 252340690 decisions of which only 5.82546e-05 were on extended
c Switched to VSIDS.
We had 252472711 decisions of which only 7.40674e-05 were on extended
We had 253051278 decisions of which only 7.66643e-05 were on extended
We had 253551281 decisions of which only 7.88795e-05 were on extended
We had 253618545 decisions of which only 7.92529e-05 were on extended
We had 253799987 decisions of which only 8.78645e-05 were on extended
We had 254229852 decisions of which only 8.81092e-05 were on extended
We had 254685248 decisions of which only 8.79517e-05 were on extended
We had 254844731 decisions of which only 8.82891e-05 were on extended
We had 254903468 decisions of which only 8.82687e-05 were on extended
We had 255454098 decisions of which only 8.80784e-05 were on extended
We had 255672088 decisions of which only 8.80033e-05 were on extended
We had 255876677 decisions of which only 8.7933e-05 were on extended
We had 256069933 decisions of which only 8.78666e-05 were on extended
We had 256867611 decisions of which only 9.18761e-05 were on extended
We had 257055475 decisions of which only 9.1809e-05 were on extended
We had 257237261 decisions of which only 9.17441e-05 were on extended
We had 257409619 decisions of which only 9.16827e-05 were on extended
We had 257657363 decisions of which only 9.15945e-05 were on extended
We had 257740470 decisions of which only 9.1565e-05 were on extended
We had 259240702 decisions of which only 9.10351e-05 were on extended
We had 259467144 decisions of which only 9.44243e-05 were on extended
c Switched to LRB.
We had 261912869 decisions of which only 0.000108815 were on extended
We had 262860296 decisions of which only 0.000108423 were on extended
We had 263147112 decisions of which only 0.000113625 were on extended
We had 263448284 decisions of which only 0.000124503 were on extended
We had 264344827 decisions of which only 0.00012408 were on extended
We had 264682297 decisions of which only 0.000123922 were on extended
We had 264709440 decisions of which only 0.000123909 were on extended
We had 265013276 decisions of which only 0.000123767 were on extended
We had 266068447 decisions of which only 0.000123277 were on extended
We had 267012560 decisions of which only 0.000122841 were on extended
We had 267194370 decisions of which only 0.000123131 were on extended
We had 267427202 decisions of which only 0.000123024 were on extended
We had 267815772 decisions of which only 0.000122846 were on extended
We had 268550938 decisions of which only 0.000122509 were on extended
c Switched to VSIDS.
We had 268782703 decisions of which only 0.000122404 were on extended
We had 269059146 decisions of which only 0.000123393 were on extended
We had 269456934 decisions of which only 0.000123211 were on extended
We had 269952490 decisions of which only 0.000122985 were on extended
We had 270561641 decisions of which only 0.000131578 were on extended
We had 271865703 decisions of which only 0.000130947 were on extended
We had 273447941 decisions of which only 0.000130189 were on extended
We had 274016080 decisions of which only 0.000129919 were on extended
We had 274134477 decisions of which only 0.000129863 were on extended
We had 274560946 decisions of which only 0.000130026 were on extended
We had 275469178 decisions of which only 0.000129597 were on extended
We had 275563043 decisions of which only 0.000129553 were on extended
We had 276304478 decisions of which only 0.000131015 were on extended
We had 276483575 decisions of which only 0.00013093 were on extended
We had 276932529 decisions of which only 0.000130718 were on extended
We had 277022130 decisions of which only 0.00013609 were on extended
We had 277392752 decisions of which only 0.000135908 were on extended
We had 277451829 decisions of which only 0.00013624 were on extended
We had 278068095 decisions of which only 0.000135938 were on extended
We had 278711001 decisions of which only 0.000135624 were on extended
We had 279337518 decisions of which only 0.00013532 were on extended
We had 279638569 decisions of which only 0.000135174 were on extended
c Switched to LRB.
We had 280399117 decisions of which only 0.000135878 were on extended
We had 280845773 decisions of which only 0.000135662 were on extended
We had 281183847 decisions of which only 0.000135499 were on extended
We had 281405346 decisions of which only 0.000135392 were on extended
We had 281577132 decisions of which only 0.000135309 were on extended
We had 281756415 decisions of which only 0.000135578 were on extended
We had 282174781 decisions of which only 0.000135377 were on extended
We had 282574772 decisions of which only 0.000135185 were on extended
We had 283198580 decisions of which only 0.000141244 were on extended
We had 283220215 decisions of which only 0.000143351 were on extended
We had 284195794 decisions of which only 0.000172064 were on extended
We had 284487743 decisions of which only 0.000171888 were on extended
We had 284686403 decisions of which only 0.000171768 were on extended
We had 285560128 decisions of which only 0.000190503 were on extended
We had 285739001 decisions of which only 0.000191083 were on extended
We had 286079123 decisions of which only 0.000190856 were on extended
We had 286701515 decisions of which only 0.000190442 were on extended
c Switched to VSIDS.
We had 286923969 decisions of which only 0.000190294 were on extended
We had 287057582 decisions of which only 0.000190206 were on extended
We had 287206777 decisions of which only 0.000190107 were on extended
We had 287450831 decisions of which only 0.000189946 were on extended
We had 287631357 decisions of which only 0.000189826 were on extended
We had 287776016 decisions of which only 0.000190773 were on extended
We had 289564464 decisions of which only 0.000189595 were on extended
We had 290531928 decisions of which only 0.000188964 were on extended
We had 290984296 decisions of which only 0.000189701 were on extended
We had 291067458 decisions of which only 0.000193082 were on extended
We had 291301775 decisions of which only 0.000192927 were on extended
We had 291433467 decisions of which only 0.00019284 were on extended
We had 291978883 decisions of which only 0.00019248 were on extended
We had 292737776 decisions of which only 0.000192664 were on extended
We had 293168326 decisions of which only 0.000193063 were on extended
We had 293292406 decisions of which only 0.000192981 were on extended
We had 293440293 decisions of which only 0.000192884 were on extended
We had 293673314 decisions of which only 0.000193412 were on extended
We had 293811471 decisions of which only 0.000193321 were on extended
We had 293866686 decisions of which only 0.000193285 were on extended
We had 293913035 decisions of which only 0.000193595 were on extended
We had 294274092 decisions of which only 0.000193357 were on extended
We had 294587623 decisions of which only 0.000193491 were on extended
We had 294957870 decisions of which only 0.000195282 were on extended
We had 295016419 decisions of which only 0.000195243 were on extended
We had 296094850 decisions of which only 0.000194532 were on extended
We had 296742824 decisions of which only 0.000194107 were on extended
c Switched to LRB.
We had 297400318 decisions of which only 0.000197041 were on extended
We had 298038957 decisions of which only 0.000196619 were on extended
We had 298170662 decisions of which only 0.000196532 were on extended
We had 298338292 decisions of which only 0.000196421 were on extended
We had 299162440 decisions of which only 0.00019588 were on extended
We had 299945355 decisions of which only 0.000195369 were on extended
We had 300772596 decisions of which only 0.000194832 were on extended
We had 301698306 decisions of which only 0.000195228 were on extended
We had 302874800 decisions of which only 0.00019447 were on extended
We had 303136466 decisions of which only 0.000194302 were on extended
We had 303668750 decisions of which only 0.000193961 were on extended
We had 303852413 decisions of which only 0.000193844 were on extended
We had 304519417 decisions of which only 0.000193748 were on extended
We had 304863521 decisions of which only 0.000193529 were on extended
We had 305072213 decisions of which only 0.000193397 were on extended
We had 305235227 decisions of which only 0.000193294 were on extended
We had 305416625 decisions of which only 0.000193179 were on extended
We had 305899631 decisions of which only 0.000192874 were on extended
c Switched to VSIDS.
We had 306134437 decisions of which only 0.000192726 were on extended
We had 306856752 decisions of which only 0.000192272 were on extended
We had 306998600 decisions of which only 0.000192183 were on extended
We had 307117741 decisions of which only 0.000192109 were on extended
We had 308762934 decisions of which only 0.000191085 were on extended
We had 308890760 decisions of which only 0.00019133 were on extended
We had 308995896 decisions of which only 0.000192559 were on extended
We had 309211085 decisions of which only 0.000192425 were on extended
We had 309634951 decisions of which only 0.000192808 were on extended
We had 309700648 decisions of which only 0.000194058 were on extended
We had 310022496 decisions of which only 0.000193857 were on extended
We had 310201391 decisions of which only 0.000193745 were on extended
We had 311524295 decisions of which only 0.000192922 were on extended
We had 311875563 decisions of which only 0.000192705 were on extended
We had 312138974 decisions of which only 0.000193824 were on extended
We had 312220287 decisions of which only 0.000195375 were on extended
We had 312285748 decisions of which only 0.000195334 were on extended
We had 312642272 decisions of which only 0.000195111 were on extended
We had 313711840 decisions of which only 0.000195721 were on extended
We had 315286341 decisions of which only 0.000194744 were on extended
We had 315901244 decisions of which only 0.000194365 were on extended
We had 316335371 decisions of which only 0.000194098 were on extended
We had 316381928 decisions of which only 0.000194069 were on extended
We had 316604520 decisions of which only 0.000193933 were on extended
We had 316706522 decisions of which only 0.00019387 were on extended
We had 316746853 decisions of which only 0.000193846 were on extended
We had 317082675 decisions of which only 0.00019364 were on extended
We had 317190216 decisions of which only 0.00019389 were on extended
We had 317323569 decisions of which only 0.000193808 were on extended
We had 317531536 decisions of which only 0.000193682 were on extended
We had 317639085 decisions of which only 0.000193616 were on extended
We had 318025020 decisions of which only 0.000193381 were on extended
We had 318131168 decisions of which only 0.000193316 were on extended
We had 318254006 decisions of which only 0.000193242 were on extended
c Switched to LRB.
We had 318670946 decisions of which only 0.000197696 were on extended
We had 318928600 decisions of which only 0.000197536 were on extended
We had 319105647 decisions of which only 0.000197427 were on extended
We had 320715244 decisions of which only 0.000196436 were on extended
We had 321265919 decisions of which only 0.000196099 were on extended
We had 321581986 decisions of which only 0.000195906 were on extended
We had 321764861 decisions of which only 0.000195795 were on extended
We had 321920426 decisions of which only 0.000196632 were on extended
We had 322624966 decisions of which only 0.000196203 were on extended
We had 322913651 decisions of which only 0.000196028 were on extended
We had 323336461 decisions of which only 0.000195771 were on extended
We had 323451236 decisions of which only 0.000195702 were on extended
We had 323614363 decisions of which only 0.000195603 were on extended
We had 323877219 decisions of which only 0.000197297 were on extended
We had 325175075 decisions of which only 0.00019651 were on extended
We had 325420675 decisions of which only 0.000196361 were on extended
c ===============================================================================
restarts                  : 11020
conflicts                 : 2433671        (2734 /sec)
decisions                 : 325530831      (0.00 % random) (365756 /sec)
propagations              : 1927333410     (2165492 /sec)
conflict literals         : 43938824       (21.13 % deleted)

conflicts w/ DIP found    : 399536         (16.42 % of conflicts)
conflicts w/ dangerous DIP: 0              (0.00 % of conflicts)
conflicts w/ DIP-learning : 13             (0.00 % of conflicts)
decisions on ext vars     : 639            (0.00 % of decisions)
total ext vars            : 7           
tried delete ext vars     : 0           
deleted ext vars          : 0           
max ext vars              : 7           

Memory used               : 432.00 MB
CPU time                  : 890.021 s
DIP computation time      : 4.33515 s (0.49 % of total time)
ER_sel time               : 2.64544 s
ER_add time               : 0.00014 s
ER_delC time              : 0 s
ER_delV time              : 0 s
ER_sub time               : 1.07107 s
ER_stat time              : 0 s

SATISFIABLE
